NAME : rnd25_50.tsp.tsp.opt.tour
TYPE : TOUR
DIMENSION : 50
TOUR_SECTION
1
12
48
21
22
30
15
34
10
43
50
9
28
19
11
13
35
42
14
25
44
46
47
24
18
37
36
45
29
32
33
17
16
5
27
3
8
40
2
49
41
31
23
39
4
26
20
6
38
7
-1